p tw 166 488
0 1
0 2
0 58
0 131
0 132
1 2
1 153
1 154
2 80
2 142
2 143
3 4
3 5
3 7
3 43
3 48
3 56
3 57
3 58
4 5
4 111
4 127
5 30
5 31
5 32
5 33
6 7
6 8
6 9
6 91
6 138
6 144
6 164
7 8
7 9
7 43
7 48
7 56
7 57
7 58
8 9
8 148
9 94
9 137
9 158
9 163
10 11
10 12
10 13
10 72
10 73
10 74
10 75
11 12
11 13
11 102
11 126
12 13
12 71
13 139
14 15
14 16
14 112
14 113
15 16
15 20
15 21
15 22
15 23
16 118
16 159
17 18
17 19
17 23
17 100
17 130
18 19
18 35
18 37
18 38
18 39
18 40
19 120
20 21
20 22
20 23
20 44
20 45
21 22
21 23
21 99
21 129
22 23
22 112
22 115
22 116
22 117
22 118
22 119
23 100
23 130
24 25
24 26
24 27
24 140
24 141
25 26
25 27
25 59
25 92
25 101
25 102
25 103
26 27
26 76
26 77
26 78
27 165
28 29
28 30
28 127
29 111
30 31
30 32
30 33
30 127
31 32
31 33
31 41
31 42
31 43
32 33
32 57
32 96
32 98
32 133
33 46
33 47
33 48
34 35
34 36
34 42
34 123
34 155
35 36
35 37
35 38
35 39
35 40
36 124
36 157
37 38
37 39
37 40
37 122
37 123
37 124
38 39
38 40
38 56
38 67
38 134
38 148
38 163
38 164
39 40
39 120
39 144
40 137
40 138
41 42
41 43
41 133
42 43
42 123
42 155
43 48
43 56
43 57
43 58
44 45
44 119
45 115
45 136
45 152
46 47
46 48
46 95
46 96
47 48
47 97
47 98
48 56
48 57
48 58
49 50
49 55
49 109
50 52
50 108
51 52
51 53
51 54
51 55
51 81
51 82
51 83
51 84
51 85
51 86
52 53
52 54
52 55
52 108
53 54
53 55
53 110
54 55
54 87
54 88
54 89
54 90
55 109
56 57
56 58
56 67
56 134
56 148
56 163
56 164
57 58
57 96
57 98
57 133
58 131
58 132
59 60
59 61
59 92
59 101
59 102
59 103
60 61
60 93
60 125
60 134
60 135
61 126
62 63
62 64
62 85
62 125
63 65
63 86
63 91
63 92
63 93
63 94
64 65
64 66
64 67
64 68
64 85
64 125
65 66
65 67
65 68
65 86
65 91
65 92
65 93
65 94
66 67
66 68
66 128
67 68
67 134
67 148
67 163
67 164
68 103
68 135
69 70
69 87
69 145
70 121
71 74
71 139
72 73
72 74
72 75
72 104
72 107
73 74
73 75
73 79
73 80
74 75
74 139
75 106
75 132
75 143
75 149
75 153
75 162
76 77
76 78
76 140
76 165
77 78
77 101
77 141
78 81
78 89
78 110
79 80
79 162
80 142
80 143
81 82
81 83
81 84
81 85
81 86
81 89
81 110
82 83
82 84
82 85
82 86
82 88
82 146
83 84
83 85
83 86
83 117
83 151
83 160
84 85
84 86
84 90
84 108
84 109
85 86
85 125
86 91
86 92
86 93
86 94
87 88
87 89
87 90
87 145
88 89
88 90
88 146
89 90
89 110
90 108
90 109
91 92
91 93
91 94
91 138
91 144
91 164
92 93
92 94
92 101
92 102
92 103
93 94
93 125
93 134
93 135
94 137
94 158
94 163
95 96
95 97
96 98
96 133
97 98
98 133
99 100
99 129
100 130
101 102
101 103
101 141
102 103
102 126
103 135
104 105
104 106
104 107
105 106
105 114
106 132
106 143
106 149
106 153
106 162
107 114
107 149
108 109
111 127
112 113
112 115
112 116
112 117
112 118
112 119
113 159
114 149
115 116
115 117
115 118
115 119
115 136
115 152
116 117
116 118
116 119
116 150
116 161
117 118
117 119
117 151
117 160
118 119
118 159
120 144
121 145
121 146
122 123
122 124
122 156
123 124
123 155
124 157
125 134
125 135
128 136
129 130
131 132
131 154
132 143
132 149
132 153
132 162
134 135
134 148
134 163
134 164
136 152
137 138
137 158
137 163
138 144
138 164
140 141
140 165
142 143
142 147
143 149
143 153
143 162
144 164
145 146
147 158
148 163
148 164
149 153
149 162
150 151
150 152
150 161
151 152
151 160
153 154
153 162
155 156
155 157
156 157
158 163
160 161
163 164
